nodes = 510;
edges = 1254;
starts = [1, 1, 2, 2, 3, 3, 4, 5, 5, 5, 6, 7, 7, 8, 8, 9, 9, 10, 11, 11, 11, 12, 12, 13, 13, 13, 14, 14, 15, 15, 15, 16, 16, 17, 17, 17, 18, 18, 19, 19, 19, 20, 20, 21, 21, 21, 22, 22, 23, 23, 23, 24, 24, 25, 25, 25, 26, 26, 27, 27, 27, 28, 28, 29, 29, 29, 30, 30, 31, 31, 32, 32, 33, 33, 33, 34, 34, 35, 35, 36, 36, 36, 37, 37, 38, 38, 39, 40, 40, 40, 41, 41, 41, 42, 42, 42, 43, 43, 43, 44, 44, 44, 45, 45, 45, 46, 46, 46, 47, 47, 47, 48, 48, 48, 49, 49, 49, 50, 50, 50, 51, 51, 51, 52, 52, 53, 54, 54, 55, 55, 55, 56, 56, 56, 57, 57, 58, 58, 59, 59, 59, 60, 60, 60, 61, 61, 61, 62, 62, 62, 63, 63, 64, 64, 65, 65, 65, 66, 66, 66, 67, 67, 67, 68, 68, 68, 69, 69, 70, 70, 70, 71, 71, 72, 72, 73, 73, 74, 74, 75, 75, 76, 77, 77, 77, 78, 78, 78, 79, 79, 79, 80, 80, 80, 81, 81, 81, 82, 82, 83, 83, 84, 84, 85, 85, 85, 86, 86, 86, 87, 87, 87, 88, 88, 88, 89, 89, 89, 90, 90, 90, 91, 91, 92, 93, 93, 93, 94, 94, 95, 95, 96, 96, 97, 97, 97, 98, 98, 98, 99, 99, 99, 100, 100, 100, 101, 101, 101, 102, 102, 102, 103, 103, 103, 104, 104, 105, 105, 105, 106, 106, 106, 107, 107, 107, 108, 108, 109, 109, 110, 110, 111, 111, 112, 112, 112, 113, 113, 113, 114, 114, 115, 115, 116, 117, 117, 118, 118, 118, 119, 119, 119, 120, 120, 120, 121, 121, 121, 122, 122, 122, 123, 123, 123, 124, 124, 125, 125, 125, 126, 126, 127, 127, 128, 128, 129, 129, 130, 130, 131, 131, 131, 132, 132, 132, 133, 133, 133, 134, 134, 134, 135, 135, 135, 136, 136, 137, 137, 137, 138, 138, 138, 139, 139, 139, 140, 140, 140, 141, 141, 142, 142, 143, 143, 144, 144, 145, 145, 145, 146, 146, 147, 147, 147, 148, 148, 149, 149, 150, 150, 151, 151, 152, 152, 152, 153, 153, 153, 154, 154, 155, 155, 155, 156, 156, 156, 157, 157, 158, 158, 159, 159, 160, 160, 161, 161, 161, 162, 162, 163, 163, 164, 164, 165, 165, 166, 166, 166, 167, 168, 169, 169, 170, 170, 170, 171, 171, 171, 172, 172, 173, 173, 174, 174, 175, 175, 175, 176, 176, 176, 177, 177, 178, 179, 179, 180, 180, 180, 181, 181, 181, 182, 182, 182, 183, 183, 184, 184, 185, 185, 186, 186, 187, 187, 187, 188, 188, 188, 189, 189, 189, 190, 190, 191, 192, 192, 193, 193, 193, 194, 194, 194, 195, 195, 195, 196, 196, 196, 197, 197, 197, 198, 198, 198, 199, 200, 200, 201, 201, 202, 202, 203, 203, 203, 204, 204, 204, 205, 205, 205, 206, 206, 206, 207, 207, 207, 208, 208, 208, 209, 209, 209, 210, 210, 210, 211, 212, 212, 213, 213, 213, 214, 214, 214, 215, 215, 216, 216, 216, 217, 217, 217, 218, 218, 219, 219, 220, 220, 221, 221, 221, 222, 222, 223, 223, 224, 224, 225, 225, 225, 226, 226, 226, 227, 227, 227, 228, 228, 228, 229, 229, 229, 230, 230, 230, 231, 231, 232, 232, 232, 233, 233, 233, 234, 234, 235, 235, 235, 236, 236, 237, 237, 238, 238, 238, 239, 239, 239, 240, 240, 240, 241, 241, 241, 242, 242, 242, 243, 243, 243, 244, 244, 244, 245, 245, 245, 246, 246, 246, 247, 247, 247, 248, 248, 248, 249, 249, 249, 250, 250, 251, 251, 252, 253, 253, 254, 254, 255, 255, 256, 256, 257, 257, 257, 258, 258, 258, 259, 259, 259, 260, 260, 260, 261, 261, 261, 262, 262, 263, 263, 264, 264, 264, 265, 265, 265, 266, 266, 267, 268, 268, 269, 269, 269, 270, 270, 270, 271, 271, 271, 272, 272, 273, 273, 274, 274, 274, 275, 275, 276, 276, 277, 277, 277, 278, 278, 279, 279, 280, 280, 281, 281, 281, 282, 282, 282, 283, 283, 283, 284, 284, 284, 285, 285, 285, 286, 286, 286, 287, 287, 288, 288, 289, 289, 290, 290, 291, 291, 292, 292, 292, 293, 293, 294, 295, 295, 295, 296, 296, 296, 297, 297, 297, 298, 298, 298, 299, 299, 300, 300, 301, 301, 302, 302, 303, 303, 303, 304, 304, 304, 305, 305, 305, 306, 306, 306, 307, 307, 308, 308, 309, 309, 309, 310, 310, 310, 311, 311, 311, 312, 312, 313, 313, 313, 314, 314, 314, 315, 315, 315, 316, 316, 316, 317, 317, 317, 318, 318, 318, 319, 319, 320, 320, 321, 321, 321, 322, 322, 322, 323, 323, 324, 324, 324, 325, 325, 325, 326, 326, 326, 327, 327, 327, 328, 328, 328, 329, 329, 330, 331, 331, 332, 332, 332, 333, 333, 333, 334, 334, 334, 335, 335, 335, 336, 336, 337, 337, 338, 338, 339, 339, 339, 340, 340, 340, 341, 341, 341, 342, 342, 342, 343, 343, 343, 344, 344, 344, 345, 345, 345, 346, 346, 346, 347, 347, 347, 348, 348, 348, 349, 349, 350, 350, 351, 351, 352, 352, 353, 353, 353, 354, 354, 355, 356, 357, 357, 358, 358, 358, 359, 359, 359, 360, 360, 360, 361, 361, 361, 362, 362, 362, 363, 363, 363, 364, 364, 364, 365, 365, 366, 366, 367, 367, 367, 368, 369, 369, 370, 370, 370, 371, 371, 371, 372, 372, 372, 373, 373, 374, 374, 374, 375, 375, 376, 376, 377, 377, 378, 378, 379, 380, 380, 381, 381, 382, 382, 383, 383, 384, 384, 385, 385, 385, 386, 386, 387, 387, 387, 388, 388, 388, 389, 389, 390, 390, 391, 391, 391, 392, 392, 393, 394, 394, 395, 395, 395, 396, 396, 397, 397, 398, 398, 398, 399, 399, 399, 400, 400, 400, 401, 401, 401, 402, 402, 402, 403, 403, 404, 405, 405, 406, 406, 406, 407, 407, 407, 408, 408, 409, 409, 410, 410, 410, 411, 411, 411, 412, 412, 412, 413, 413, 414, 414, 415, 415, 416, 416, 417, 417, 417, 418, 418, 419, 419, 419, 420, 420, 420, 421, 421, 421, 422, 422, 423, 423, 424, 424, 424, 425, 425, 425, 426, 426, 426, 427, 427, 427, 428, 428, 428, 429, 429, 429, 430, 430, 430, 431, 431, 431, 432, 432, 433, 433, 434, 434, 435, 436, 437, 437, 437, 438, 438, 438, 439, 439, 439, 440, 440, 441, 441, 441, 442, 442, 442, 443, 443, 443, 444, 444, 444, 445, 445, 445, 446, 446, 446, 447, 447, 448, 448, 449, 449, 449, 450, 450, 450, 451, 451, 452, 452, 453, 453, 453, 454, 454, 455, 455, 455, 456, 456, 457, 458, 458, 459, 459, 460, 461, 461, 461, 462, 462, 463, 463, 464, 464, 465, 465, 465, 466, 466, 467, 467, 468, 468, 468, 469, 469, 469, 470, 470, 471, 471, 472, 472, 472, 473, 473, 473, 474, 474, 474, 475, 475, 475, 476, 476, 476, 477, 477, 477, 478, 478, 478, 479, 479, 480, 480, 481, 481, 482, 482, 482, 483, 483, 484, 484, 484, 485, 485, 486, 486, 487, 487, 488, 488, 489, 490, 490, 491, 492, 492, 493, 493, 494, 494, 494, 495, 495, 496, 496, 497, 497, 498, 498, 498, 499, 499, 500, 500, 500, 501, 501, 502, 502, 502, 503, 503, 504, 504, 504, 505, 505, 506, 506, 506, 507, 507, 508, 508, 508, 509, 509, 510, 510];
ends = [2, 32, 1, 3, 2, 34, 5, 4, 6, 36, 5, 8, 38, 7, 9, 8, 40, 11, 10, 12, 42, 11, 13, 12, 14, 44, 13, 15, 14, 16, 46, 15, 17, 16, 18, 48, 17, 19, 18, 20, 50, 19, 21, 20, 22, 52, 21, 23, 22, 24, 54, 23, 25, 24, 26, 56, 25, 27, 26, 28, 58, 27, 29, 28, 30, 60, 29, 31, 30, 62, 1, 33, 32, 34, 65, 3, 33, 36, 67, 5, 35, 37, 36, 38, 7, 37, 40, 9, 39, 41, 40, 42, 73, 11, 41, 43, 42, 44, 75, 13, 43, 45, 44, 46, 77, 15, 45, 47, 46, 48, 79, 17, 47, 49, 48, 50, 81, 19, 49, 51, 50, 52, 83, 21, 51, 85, 23, 55, 54, 56, 87, 25, 55, 57, 56, 89, 27, 59, 58, 60, 91, 29, 59, 61, 60, 62, 93, 31, 61, 63, 62, 95, 65, 96, 33, 64, 66, 65, 67, 98, 35, 66, 68, 67, 69, 100, 68, 70, 69, 71, 102, 70, 72, 71, 73, 41, 72, 75, 106, 43, 74, 77, 45, 76, 78, 77, 79, 110, 47, 78, 80, 79, 81, 112, 49, 80, 82, 81, 114, 51, 84, 83, 85, 53, 84, 86, 85, 87, 118, 55, 86, 88, 87, 89, 120, 57, 88, 90, 89, 91, 122, 59, 90, 93, 61, 92, 94, 93, 95, 63, 94, 64, 97, 96, 98, 129, 66, 97, 99, 98, 100, 131, 68, 99, 101, 100, 102, 133, 70, 101, 103, 102, 104, 135, 103, 105, 104, 106, 137, 74, 105, 107, 106, 108, 139, 107, 109, 108, 110, 78, 109, 112, 143, 80, 111, 113, 112, 114, 145, 82, 113, 116, 147, 115, 118, 149, 86, 117, 119, 118, 120, 151, 88, 119, 121, 120, 122, 153, 90, 121, 123, 122, 124, 155, 123, 125, 124, 126, 157, 125, 127, 126, 159, 129, 160, 97, 128, 131, 162, 99, 130, 132, 131, 133, 164, 101, 132, 134, 133, 135, 166, 103, 134, 136, 135, 137, 105, 136, 138, 137, 139, 170, 107, 138, 140, 139, 141, 172, 140, 142, 141, 143, 111, 142, 145, 176, 113, 144, 146, 145, 147, 115, 146, 148, 147, 180, 117, 150, 149, 182, 119, 152, 151, 153, 184, 121, 152, 154, 153, 155, 123, 154, 156, 155, 157, 188, 125, 156, 159, 190, 127, 158, 128, 161, 160, 162, 193, 130, 161, 164, 195, 132, 163, 166, 197, 134, 165, 167, 166, 169, 168, 170, 138, 169, 171, 170, 172, 203, 140, 171, 174, 205, 173, 175, 174, 176, 207, 144, 175, 177, 176, 209, 179, 178, 180, 148, 179, 181, 180, 182, 213, 150, 181, 183, 182, 184, 152, 183, 186, 217, 185, 187, 186, 188, 219, 156, 187, 189, 188, 190, 221, 158, 189, 223, 193, 224, 161, 192, 194, 193, 195, 226, 163, 194, 196, 195, 197, 228, 165, 196, 198, 197, 199, 230, 198, 201, 232, 200, 202, 201, 203, 171, 202, 204, 203, 205, 236, 173, 204, 206, 205, 207, 238, 175, 206, 208, 207, 209, 240, 177, 208, 210, 209, 211, 242, 210, 213, 244, 181, 212, 214, 213, 215, 246, 214, 216, 215, 217, 248, 185, 216, 218, 217, 250, 187, 220, 219, 221, 189, 220, 222, 221, 223, 191, 222, 192, 225, 224, 226, 257, 194, 225, 227, 226, 228, 259, 196, 227, 229, 228, 230, 261, 198, 229, 231, 230, 232, 200, 231, 233, 232, 234, 265, 233, 235, 234, 236, 267, 204, 235, 238, 269, 206, 237, 239, 238, 240, 271, 208, 239, 241, 240, 242, 273, 210, 241, 243, 242, 244, 275, 212, 243, 245, 244, 246, 277, 214, 245, 247, 246, 248, 279, 216, 247, 249, 248, 250, 281, 218, 249, 252, 283, 251, 254, 285, 253, 255, 254, 287, 257, 288, 225, 256, 258, 257, 259, 290, 227, 258, 260, 259, 261, 292, 229, 260, 262, 261, 263, 262, 264, 263, 265, 296, 233, 264, 266, 265, 298, 235, 269, 300, 237, 268, 270, 269, 271, 302, 239, 270, 272, 271, 304, 241, 274, 273, 275, 306, 243, 274, 277, 308, 245, 276, 278, 277, 310, 247, 280, 279, 281, 249, 280, 282, 281, 283, 314, 251, 282, 284, 283, 285, 316, 253, 284, 286, 285, 287, 318, 255, 286, 256, 289, 288, 321, 258, 291, 290, 292, 260, 291, 293, 292, 325, 295, 294, 296, 327, 264, 295, 297, 296, 298, 329, 266, 297, 299, 298, 331, 268, 301, 300, 333, 270, 303, 302, 304, 335, 272, 303, 305, 304, 306, 337, 274, 305, 307, 306, 339, 276, 309, 308, 310, 341, 278, 309, 311, 310, 312, 343, 311, 313, 312, 314, 345, 282, 313, 315, 314, 316, 347, 284, 315, 317, 316, 318, 349, 286, 317, 319, 318, 351, 321, 352, 289, 320, 322, 321, 323, 354, 322, 324, 323, 325, 356, 293, 324, 326, 325, 327, 358, 295, 326, 328, 327, 329, 360, 297, 328, 362, 299, 332, 331, 333, 364, 301, 332, 334, 333, 335, 366, 303, 334, 336, 335, 337, 305, 336, 339, 370, 307, 338, 340, 339, 341, 372, 309, 340, 342, 341, 343, 374, 311, 342, 344, 343, 345, 376, 313, 344, 346, 345, 347, 378, 315, 346, 348, 347, 349, 380, 317, 348, 351, 382, 319, 350, 320, 353, 352, 354, 385, 322, 353, 387, 324, 358, 389, 326, 357, 359, 358, 360, 391, 328, 359, 361, 360, 362, 393, 330, 361, 363, 362, 364, 395, 332, 363, 365, 364, 397, 334, 367, 366, 368, 399, 367, 370, 401, 338, 369, 371, 370, 372, 403, 340, 371, 373, 372, 374, 342, 373, 375, 374, 407, 344, 377, 376, 378, 346, 377, 411, 348, 381, 380, 413, 350, 383, 382, 415, 385, 416, 353, 384, 386, 385, 387, 355, 386, 388, 387, 389, 420, 357, 388, 391, 422, 359, 390, 392, 391, 424, 361, 395, 426, 363, 394, 396, 395, 428, 365, 398, 397, 399, 430, 367, 398, 400, 399, 401, 432, 369, 400, 402, 401, 403, 434, 371, 402, 405, 404, 406, 405, 407, 438, 375, 406, 408, 407, 409, 408, 410, 409, 411, 442, 379, 410, 412, 411, 413, 444, 381, 412, 415, 446, 383, 414, 384, 417, 416, 418, 449, 417, 419, 418, 420, 451, 388, 419, 421, 420, 422, 453, 390, 421, 424, 455, 392, 423, 425, 424, 426, 457, 394, 425, 427, 426, 428, 459, 396, 427, 429, 428, 430, 461, 398, 429, 431, 430, 432, 463, 400, 431, 434, 465, 402, 433, 467, 437, 436, 438, 469, 406, 437, 439, 438, 440, 471, 439, 441, 440, 442, 473, 410, 441, 443, 442, 444, 475, 412, 443, 445, 444, 446, 477, 414, 445, 447, 446, 479, 449, 480, 417, 448, 450, 449, 451, 482, 419, 450, 453, 484, 421, 452, 454, 453, 455, 423, 454, 456, 455, 488, 425, 459, 490, 427, 458, 461, 429, 460, 462, 461, 494, 431, 464, 463, 465, 433, 464, 466, 465, 498, 435, 468, 467, 469, 500, 437, 468, 470, 469, 502, 439, 472, 471, 473, 504, 441, 472, 474, 473, 475, 506, 443, 474, 476, 475, 477, 508, 445, 476, 478, 477, 479, 510, 447, 478, 448, 481, 480, 482, 450, 481, 483, 482, 484, 452, 483, 485, 484, 486, 485, 487, 486, 488, 456, 487, 490, 458, 489, 492, 491, 493, 492, 494, 462, 493, 495, 494, 496, 495, 497, 496, 498, 466, 497, 499, 498, 500, 468, 499, 501, 500, 502, 470, 501, 503, 502, 504, 472, 503, 505, 504, 506, 474, 505, 507, 506, 508, 476, 507, 509, 508, 510, 478, 509];
weights = [1, 1, 1, 1, 1, 1, 1, 1, 1, 1, 1, 1, 1, 1, 1, 1, 1, 1, 1, 1, 1, 1, 1, 1, 1, 1, 1, 1, 1, 1, 1, 1, 1, 1, 1, 1, 1, 1, 1, 1, 1, 1, 1, 1, 1, 1, 1, 1, 1, 1, 1, 1, 1, 1, 1, 1, 1, 1, 1, 1, 1, 1, 1, 1, 1, 1, 1, 1, 1, 1, 1, 1, 1, 1, 1, 1, 1, 1, 1, 1, 1, 1, 1, 1, 1, 1, 1, 1, 1, 1, 1, 1, 1, 1, 1, 1, 1, 1, 1, 1, 1, 1, 1, 1, 1, 1, 1, 1, 1, 1, 1, 1, 1, 1, 1, 1, 1, 1, 1, 1, 1, 1, 1, 1, 1, 1, 1, 1, 1, 1, 1, 1, 1, 1, 1, 1, 1, 1, 1, 1, 1, 1, 1, 1, 1, 1, 1, 1, 1, 1, 1, 1, 1, 1, 1, 1, 1, 1, 1, 1, 1, 1, 1, 1, 1, 1, 1, 1, 1, 1, 1, 1, 1, 1, 1, 1, 1, 1, 1, 1, 1, 1, 1, 1, 1, 1, 1, 1, 1, 1, 1, 1, 1, 1, 1, 1, 1, 1, 1, 1, 1, 1, 1, 1, 1, 1, 1, 1, 1, 1, 1, 1, 1, 1, 1, 1, 1, 1, 1, 1, 1, 1, 1, 1, 1, 1, 1, 1, 1, 1, 1, 1, 1, 1, 1, 1, 1, 1, 1, 1, 1, 1, 1, 1, 1, 1, 1, 1, 1, 1, 1, 1, 1, 1, 1, 1, 1, 1, 1, 1, 1, 1, 1, 1, 1, 1, 1, 1, 1, 1, 1, 1, 1, 1, 1, 1, 1, 1, 1, 1, 1, 1, 1, 1, 1, 1, 1, 1, 1, 1, 1, 1, 1, 1, 1, 1, 1, 1, 1, 1, 1, 1, 1, 1, 1, 1, 1, 1, 1, 1, 1, 1, 1, 1, 1, 1, 1, 1, 1, 1, 1, 1, 1, 1, 1, 1, 1, 1, 1, 1, 1, 1, 1, 1, 1, 1, 1, 1, 1, 1, 1, 1, 1, 1, 1, 1, 1, 1, 1, 1, 1, 1, 1, 1, 1, 1, 1, 1, 1, 1, 1, 1, 1, 1, 1, 1, 1, 1, 1, 1, 1, 1, 1, 1, 1, 1, 1, 1, 1, 1, 1, 1, 1, 1, 1, 1, 1, 1, 1, 1, 1, 1, 1, 1, 1, 1, 1, 1, 1, 1, 1, 1, 1, 1, 1, 1, 1, 1, 1, 1, 1, 1, 1, 1, 1, 1, 1, 1, 1, 1, 1, 1, 1, 1, 1, 1, 1, 1, 1, 1, 1, 1, 1, 1, 1, 1, 1, 1, 1, 1, 1, 1, 1, 1, 1, 1, 1, 1, 1, 1, 1, 1, 1, 1, 1, 1, 1, 1, 1, 1, 1, 1, 1, 1, 1, 1, 1, 1, 1, 1, 1, 1, 1, 1, 1, 1, 1, 1, 1, 1, 1, 1, 1, 1, 1, 1, 1, 1, 1, 1, 1, 1, 1, 1, 1, 1, 1, 1, 1, 1, 1, 1, 1, 1, 1, 1, 1, 1, 1, 1, 1, 1, 1, 1, 1, 1, 1, 1, 1, 1, 1, 1, 1, 1, 1, 1, 1, 1, 1, 1, 1, 1, 1, 1, 1, 1, 1, 1, 1, 1, 1, 1, 1, 1, 1, 1, 1, 1, 1, 1, 1, 1, 1, 1, 1, 1, 1, 1, 1, 1, 1, 1, 1, 1, 1, 1, 1, 1, 1, 1, 1, 1, 1, 1, 1, 1, 1, 1, 1, 1, 1, 1, 1, 1, 1, 1, 1, 1, 1, 1, 1, 1, 1, 1, 1, 1, 1, 1, 1, 1, 1, 1, 1, 1, 1, 1, 1, 1, 1, 1, 1, 1, 1, 1, 1, 1, 1, 1, 1, 1, 1, 1, 1, 1, 1, 1, 1, 1, 1, 1, 1, 1, 1, 1, 1, 1, 1, 1, 1, 1, 1, 1, 1, 1, 1, 1, 1, 1, 1, 1, 1, 1, 1, 1, 1, 1, 1, 1, 1, 1, 1, 1, 1, 1, 1, 1, 1, 1, 1, 1, 1, 1, 1, 1, 1, 1, 1, 1, 1, 1, 1, 1, 1, 1, 1, 1, 1, 1, 1, 1, 1, 1, 1, 1, 1, 1, 1, 1, 1, 1, 1, 1, 1, 1, 1, 1, 1, 1, 1, 1, 1, 1, 1, 1, 1, 1, 1, 1, 1, 1, 1, 1, 1, 1, 1, 1, 1, 1, 1, 1, 1, 1, 1, 1, 1, 1, 1, 1, 1, 1, 1, 1, 1, 1, 1, 1, 1, 1, 1, 1, 1, 1, 1, 1, 1, 1, 1, 1, 1, 1, 1, 1, 1, 1, 1, 1, 1, 1, 1, 1, 1, 1, 1, 1, 1, 1, 1, 1, 1, 1, 1, 1, 1, 1, 1, 1, 1, 1, 1, 1, 1, 1, 1, 1, 1, 1, 1, 1, 1, 1, 1, 1, 1, 1, 1, 1, 1, 1, 1, 1, 1, 1, 1, 1, 1, 1, 1, 1, 1, 1, 1, 1, 1, 1, 1, 1, 1, 1, 1, 1, 1, 1, 1, 1, 1, 1, 1, 1, 1, 1, 1, 1, 1, 1, 1, 1, 1, 1, 1, 1, 1, 1, 1, 1, 1, 1, 1, 1, 1, 1, 1, 1, 1, 1, 1, 1, 1, 1, 1, 1, 1, 1, 1, 1, 1, 1, 1, 1, 1, 1, 1, 1, 1, 1, 1, 1, 1, 1, 1, 1, 1, 1, 1, 1, 1, 1, 1, 1, 1, 1, 1, 1, 1, 1, 1, 1, 1, 1, 1, 1, 1, 1, 1, 1, 1, 1, 1, 1, 1, 1, 1, 1, 1, 1, 1, 1, 1, 1, 1, 1, 1, 1, 1, 1, 1, 1, 1, 1, 1, 1, 1, 1, 1, 1, 1, 1, 1, 1, 1, 1, 1, 1, 1, 1, 1, 1, 1, 1, 1, 1, 1, 1, 1, 1, 1, 1, 1, 1, 1, 1, 1, 1, 1, 1, 1, 1, 1, 1, 1, 1, 1, 1, 1, 1, 1, 1, 1, 1, 1, 1, 1, 1, 1, 1, 1, 1, 1, 1, 1, 1, 1, 1, 1, 1, 1, 1, 1, 1, 1, 1, 1, 1, 1, 1, 1, 1, 1, 1, 1, 1, 1, 1, 1, 1, 1, 1, 1, 1, 1, 1, 1, 1, 1, 1, 1, 1, 1, 1, 1, 1, 1, 1, 1, 1, 1, 1, 1, 1, 1, 1, 1, 1, 1, 1, 1, 1, 1, 1, 1, 1, 1, 1, 1, 1, 1, 1, 1, 1, 1, 1, 1, 1, 1, 1, 1, 1, 1, 1, 1, 1, 1, 1, 1, 1, 1, 1, 1, 1, 1, 1, 1, 1, 1, 1, 1, 1, 1, 1, 1, 1, 1, 1, 1, 1, 1, 1, 1, 1, 1, 1, 1, 1, 1, 1, 1, 1, 1, 1, 1, 1, 1, 1, 1, 1, 1, 1, 1, 1, 1, 1, 1, 1, 1, 1, 1, 1, 1, 1, 1, 1, 1, 1, 1, 1, 1, 1, 1, 1, 1, 1, 1, 1, 1, 1, 1, 1, 1, 1, 1, 1, 1, 1, 1, 1, 1, 1, 1, 1, 1, 1, 1, 1, 1, 1, 1, 1, 1, 1, 1, 1, 1, 1, 1, 1, 1, 1, 1, 1, 1, 1, 1, 1, 1, 1, 1, 1, 1, 1, 1, 1, 1, 1, 1, 1, 1, 1, 1, 1, 1, 1, 1, 1, 1, 1, 1, 1, 1, 1, 1, 1, 1, 1, 1, 1, 1, 1, 1, 1, 1, 1, 1, 1, 1, 1, 1, 1, 1, 1, 1, 1, 1, 1, 1, 1, 1, 1, 1, 1, 1, 1, 1, 1, 1, 1];
start = 1;
end= 510;
p = [0, 0, 0, 0, 0, 0, 0, 0, 0, 0, 0, 0, 0, 0, 0, 0, 0, 0, 0, 0, 0, 0, 0, 0, 0, 0, 0, 0, 0, 0, 0, 0, 0, 0, 0, 0, 0, 0, 0, 0, 0, 0, 0, 0, 0, 0, 0, 0, 0, 0, 0, 0, 0, 0, 0, 0, 0, 0, 0, 0, 0, 0, 0, 0, 0, 0, 0, 0, 0, 0, 0, 0, 0, 0, 0, 0, 0, 0, 0, 0, 0, 0, 0, 0, 0, 0, 0, 0, 0, 0, 0, 0, 0, 0, 0, 0, 0, 25, 0, 0, 0, 0, 0, 0, 8, 0, 0, 0, 0, 0, 0, 0, 0, 0, 8, 0, 0, 0, 0, 0, 0, 0, 0, 0, 0, 0, 0, 0, 0, 0, 0, 0, 0, 0, 0, 0, 0, 0, 0, 0, 31, 0, 0, 0, 0, 0, 0, 0, 0, 0, 0, 1, 0, 0, 0, 0, 0, 0, 0, 0, 0, 0, 0, 0, 7, 0, 0, 0, 0, 0, 0, 33, 0, 0, 0, 0, 0, 0, 0, 0, 0, 0, 0, 0, 0, 0, 0, 0, 34, 0, 0, 0, 0, 0, 0, 0, 0, 0, 26, 0, 0, 0, 0, 0, 0, 0, 0, 0, 0, 0, 0, 0, 0, 0, 0, 0, 0, 0, 0, 0, 0, 0, 0, 0, 0, 0, 0, 0, 0, 0, 0, 0, 35, 0, 19, 0, 0, 0, 0, 0, 0, 0, 0, 0, 0, 0, 0, 0, 0, 0, 0, 0, 0, 0, 0, 0, 0, 0, 0, 0, 0, 0, 0, 0, 0, 0, 0, 0, 0, 0, 0, 0, 0, 0, 0, 0, 0, 0, 0, 0, 0, 0, 0, 0, 0, 0, 0, 0, 0, 0, 0, 0, 0, 0, 0, 0, 0, 0, 0, 0, 0, 0, 0, 0, 0, 0, 0, 0, 0, 0, 0, 0, 0, 0, 0, 0, 0, 0, 0, 0, 0, 0, 0, 0, 0, 0, 0, 0, 0, 0, 0, 0, 0, 0, 0, 0, 0, 0, 0, 0, 0, 0, 0, 0, 0, 0, 0, 0, 0, 0, 0, 0, 0, 0, 0, 0, 0, 0, 0, 0, 0, 0, 0, 0, 0, 0, 0, 0, 0, 0, 0, 0, 0, 16, 0, 0, 0, 0, 0, 0, 0, 0, 0, 0, 0, 23, 0, 0, 0, 0, 0, 0, 0, 0, 0, 0, 0, 0, 0, 0, 0, 0, 0, 0, 0, 0, 0, 0, 0, 0, 0, 0, 0, 0, 0, 0, 0, 0, 0, 0, 0, 0, 0, 0, 0, 0, 0, 0, 0, 0, 0, 0, 0, 0, 0, 0, 0, 0, 0, 0, 0, 0, 0, 0, 0, 0, 0, 0, 0, 0, 0, 0, 0, 0, 0, 0, 0, 0, 0, 0, 0, 0, 0, 0, 0, 0, 0, 0, 0, 0, 0, 0, 0, 0, 0, 0, 0, 0, 0, 0, 0, 0, 0, 0, 0, 0, 0, 0, 0, 0, 0, 0, 0, 0, 0, 0, 0, 0, 0, 0, 0, 0, 0, 0, 17, 0, 0, 0, 0, 0];
